(declare-const delta___cost Int)
(declare-const delta_z Int)
(declare-const delta_x Int)
(assert (exists
         ((|z'?1| Int) (|x'?2| Int) (|__cost'?3| Int) (phi_z?4 Int)
            (phi_x?5 Int) (z?6 Int) (n?7 Int) (x?8 Int) (__cost?9 Int))
         (and (< (+ (- n?7) x?8) 0) (<= (- __cost?9) 0)
                (<= (+ (- __cost?9) -1) 0)
                (or (and (< (+ (- z?6) x?8) 0) (= (+ (- phi_x?5) x?8 1) 0)
                           (= (+ (- phi_z?4) z?6) 0))
                      (and (<= (+ z?6 (- x?8)) 0) (= (+ (- phi_x?5) x?8) 0)
                             (= (+ (- phi_z?4) z?6 1) 0)))
                (= (+ |z'?1| (- phi_z?4)) 0) (= (+ |x'?2| (- phi_x?5)) 0)
                (= (+ |__cost'?3| (- __cost?9) -1) 0)
                (= delta___cost (+ |__cost'?3| (- __cost?9)))
                (= delta_x (+ |x'?2| (- x?8))) (= delta_z (+ |z'?1| (- z?6))))))
(check-sat)
